c *********************************
c * Circuit generated by BenCGen
c *
c * CarryLookaheadBlock_94_94_94_InOutT
c *
c * Ports with 1 gate(s): 2
c * Ports with 2 gate(s): 401
c * Ports with 3 gate(s): 94
c * Ports with 4 gate(s): 69
c * Ports with 5 gate(s): 46
c * Total gates: 612
c *********************************
p cnf 800 2392
1 285 0
-1 -285 0
1 -284 0
285 -284 0
-1 -285 284 0
1 95 -286 0
-1 95 286 0
1 -95 286 0
-1 -95 -286 0
1 -380 0
95 -380 0
-1 -95 380 0
2 96 -287 0
-2 96 287 0
2 -96 287 0
-2 -96 -287 0
2 -381 0
96 -381 0
-2 -96 381 0
3 97 -288 0
-3 97 288 0
3 -97 288 0
-3 -97 -288 0
3 -382 0
97 -382 0
-3 -97 382 0
4 98 -289 0
-4 98 289 0
4 -98 289 0
-4 -98 -289 0
4 -383 0
98 -383 0
-4 -98 383 0
5 99 -290 0
-5 99 290 0
5 -99 290 0
-5 -99 -290 0
5 -384 0
99 -384 0
-5 -99 384 0
6 100 -291 0
-6 100 291 0
6 -100 291 0
-6 -100 -291 0
6 -385 0
100 -385 0
-6 -100 385 0
7 101 -292 0
-7 101 292 0
7 -101 292 0
-7 -101 -292 0
7 -386 0
101 -386 0
-7 -101 386 0
8 102 -293 0
-8 102 293 0
8 -102 293 0
-8 -102 -293 0
8 -387 0
102 -387 0
-8 -102 387 0
9 103 -294 0
-9 103 294 0
9 -103 294 0
-9 -103 -294 0
9 -388 0
103 -388 0
-9 -103 388 0
10 104 -295 0
-10 104 295 0
10 -104 295 0
-10 -104 -295 0
10 -389 0
104 -389 0
-10 -104 389 0
11 105 -296 0
-11 105 296 0
11 -105 296 0
-11 -105 -296 0
11 -390 0
105 -390 0
-11 -105 390 0
12 106 -297 0
-12 106 297 0
12 -106 297 0
-12 -106 -297 0
12 -391 0
106 -391 0
-12 -106 391 0
13 107 -298 0
-13 107 298 0
13 -107 298 0
-13 -107 -298 0
13 -392 0
107 -392 0
-13 -107 392 0
14 108 -299 0
-14 108 299 0
14 -108 299 0
-14 -108 -299 0
14 -393 0
108 -393 0
-14 -108 393 0
15 109 -300 0
-15 109 300 0
15 -109 300 0
-15 -109 -300 0
15 -394 0
109 -394 0
-15 -109 394 0
16 110 -301 0
-16 110 301 0
16 -110 301 0
-16 -110 -301 0
16 -395 0
110 -395 0
-16 -110 395 0
17 111 -302 0
-17 111 302 0
17 -111 302 0
-17 -111 -302 0
17 -396 0
111 -396 0
-17 -111 396 0
18 112 -303 0
-18 112 303 0
18 -112 303 0
-18 -112 -303 0
18 -397 0
112 -397 0
-18 -112 397 0
19 113 -304 0
-19 113 304 0
19 -113 304 0
-19 -113 -304 0
19 -398 0
113 -398 0
-19 -113 398 0
20 114 -305 0
-20 114 305 0
20 -114 305 0
-20 -114 -305 0
20 -399 0
114 -399 0
-20 -114 399 0
21 115 -306 0
-21 115 306 0
21 -115 306 0
-21 -115 -306 0
21 -400 0
115 -400 0
-21 -115 400 0
22 116 -307 0
-22 116 307 0
22 -116 307 0
-22 -116 -307 0
22 -401 0
116 -401 0
-22 -116 401 0
23 117 -308 0
-23 117 308 0
23 -117 308 0
-23 -117 -308 0
23 -402 0
117 -402 0
-23 -117 402 0
24 118 -309 0
-24 118 309 0
24 -118 309 0
-24 -118 -309 0
24 -403 0
118 -403 0
-24 -118 403 0
25 119 -310 0
-25 119 310 0
25 -119 310 0
-25 -119 -310 0
25 -404 0
119 -404 0
-25 -119 404 0
26 120 -311 0
-26 120 311 0
26 -120 311 0
-26 -120 -311 0
26 -405 0
120 -405 0
-26 -120 405 0
27 121 -312 0
-27 121 312 0
27 -121 312 0
-27 -121 -312 0
27 -406 0
121 -406 0
-27 -121 406 0
28 122 -313 0
-28 122 313 0
28 -122 313 0
-28 -122 -313 0
28 -407 0
122 -407 0
-28 -122 407 0
29 123 -314 0
-29 123 314 0
29 -123 314 0
-29 -123 -314 0
29 -408 0
123 -408 0
-29 -123 408 0
30 124 -315 0
-30 124 315 0
30 -124 315 0
-30 -124 -315 0
30 -409 0
124 -409 0
-30 -124 409 0
31 125 -316 0
-31 125 316 0
31 -125 316 0
-31 -125 -316 0
31 -410 0
125 -410 0
-31 -125 410 0
32 126 -317 0
-32 126 317 0
32 -126 317 0
-32 -126 -317 0
32 -411 0
126 -411 0
-32 -126 411 0
33 127 -318 0
-33 127 318 0
33 -127 318 0
-33 -127 -318 0
33 -412 0
127 -412 0
-33 -127 412 0
34 128 -319 0
-34 128 319 0
34 -128 319 0
-34 -128 -319 0
34 -413 0
128 -413 0
-34 -128 413 0
35 129 -320 0
-35 129 320 0
35 -129 320 0
-35 -129 -320 0
35 -414 0
129 -414 0
-35 -129 414 0
36 130 -321 0
-36 130 321 0
36 -130 321 0
-36 -130 -321 0
36 -415 0
130 -415 0
-36 -130 415 0
37 131 -322 0
-37 131 322 0
37 -131 322 0
-37 -131 -322 0
37 -416 0
131 -416 0
-37 -131 416 0
38 132 -323 0
-38 132 323 0
38 -132 323 0
-38 -132 -323 0
38 -417 0
132 -417 0
-38 -132 417 0
39 133 -324 0
-39 133 324 0
39 -133 324 0
-39 -133 -324 0
39 -418 0
133 -418 0
-39 -133 418 0
40 134 -325 0
-40 134 325 0
40 -134 325 0
-40 -134 -325 0
40 -419 0
134 -419 0
-40 -134 419 0
41 135 -326 0
-41 135 326 0
41 -135 326 0
-41 -135 -326 0
41 -420 0
135 -420 0
-41 -135 420 0
42 136 -327 0
-42 136 327 0
42 -136 327 0
-42 -136 -327 0
42 -421 0
136 -421 0
-42 -136 421 0
43 137 -328 0
-43 137 328 0
43 -137 328 0
-43 -137 -328 0
43 -422 0
137 -422 0
-43 -137 422 0
44 138 -329 0
-44 138 329 0
44 -138 329 0
-44 -138 -329 0
44 -423 0
138 -423 0
-44 -138 423 0
45 139 -330 0
-45 139 330 0
45 -139 330 0
-45 -139 -330 0
45 -424 0
139 -424 0
-45 -139 424 0
46 140 -331 0
-46 140 331 0
46 -140 331 0
-46 -140 -331 0
46 -425 0
140 -425 0
-46 -140 425 0
47 141 -332 0
-47 141 332 0
47 -141 332 0
-47 -141 -332 0
47 -426 0
141 -426 0
-47 -141 426 0
48 142 -333 0
-48 142 333 0
48 -142 333 0
-48 -142 -333 0
48 -427 0
142 -427 0
-48 -142 427 0
49 143 -334 0
-49 143 334 0
49 -143 334 0
-49 -143 -334 0
49 -428 0
143 -428 0
-49 -143 428 0
50 144 -335 0
-50 144 335 0
50 -144 335 0
-50 -144 -335 0
50 -429 0
144 -429 0
-50 -144 429 0
51 145 -336 0
-51 145 336 0
51 -145 336 0
-51 -145 -336 0
51 -430 0
145 -430 0
-51 -145 430 0
52 146 -337 0
-52 146 337 0
52 -146 337 0
-52 -146 -337 0
52 -431 0
146 -431 0
-52 -146 431 0
53 147 -338 0
-53 147 338 0
53 -147 338 0
-53 -147 -338 0
53 -432 0
147 -432 0
-53 -147 432 0
54 148 -339 0
-54 148 339 0
54 -148 339 0
-54 -148 -339 0
54 -433 0
148 -433 0
-54 -148 433 0
55 149 -340 0
-55 149 340 0
55 -149 340 0
-55 -149 -340 0
55 -434 0
149 -434 0
-55 -149 434 0
56 150 -341 0
-56 150 341 0
56 -150 341 0
-56 -150 -341 0
56 -435 0
150 -435 0
-56 -150 435 0
57 151 -342 0
-57 151 342 0
57 -151 342 0
-57 -151 -342 0
57 -436 0
151 -436 0
-57 -151 436 0
58 152 -343 0
-58 152 343 0
58 -152 343 0
-58 -152 -343 0
58 -437 0
152 -437 0
-58 -152 437 0
59 153 -344 0
-59 153 344 0
59 -153 344 0
-59 -153 -344 0
59 -438 0
153 -438 0
-59 -153 438 0
60 154 -345 0
-60 154 345 0
60 -154 345 0
-60 -154 -345 0
60 -439 0
154 -439 0
-60 -154 439 0
61 155 -346 0
-61 155 346 0
61 -155 346 0
-61 -155 -346 0
61 -440 0
155 -440 0
-61 -155 440 0
62 156 -347 0
-62 156 347 0
62 -156 347 0
-62 -156 -347 0
62 -441 0
156 -441 0
-62 -156 441 0
63 157 -348 0
-63 157 348 0
63 -157 348 0
-63 -157 -348 0
63 -442 0
157 -442 0
-63 -157 442 0
64 158 -349 0
-64 158 349 0
64 -158 349 0
-64 -158 -349 0
64 -443 0
158 -443 0
-64 -158 443 0
65 159 -350 0
-65 159 350 0
65 -159 350 0
-65 -159 -350 0
65 -444 0
159 -444 0
-65 -159 444 0
66 160 -351 0
-66 160 351 0
66 -160 351 0
-66 -160 -351 0
66 -445 0
160 -445 0
-66 -160 445 0
67 161 -352 0
-67 161 352 0
67 -161 352 0
-67 -161 -352 0
67 -446 0
161 -446 0
-67 -161 446 0
68 162 -353 0
-68 162 353 0
68 -162 353 0
-68 -162 -353 0
68 -447 0
162 -447 0
-68 -162 447 0
69 163 -354 0
-69 163 354 0
69 -163 354 0
-69 -163 -354 0
69 -448 0
163 -448 0
-69 -163 448 0
70 164 -355 0
-70 164 355 0
70 -164 355 0
-70 -164 -355 0
70 -449 0
164 -449 0
-70 -164 449 0
71 165 -356 0
-71 165 356 0
71 -165 356 0
-71 -165 -356 0
71 -450 0
165 -450 0
-71 -165 450 0
72 166 -357 0
-72 166 357 0
72 -166 357 0
-72 -166 -357 0
72 -451 0
166 -451 0
-72 -166 451 0
73 167 -358 0
-73 167 358 0
73 -167 358 0
-73 -167 -358 0
73 -452 0
167 -452 0
-73 -167 452 0
74 168 -359 0
-74 168 359 0
74 -168 359 0
-74 -168 -359 0
74 -453 0
168 -453 0
-74 -168 453 0
75 169 -360 0
-75 169 360 0
75 -169 360 0
-75 -169 -360 0
75 -454 0
169 -454 0
-75 -169 454 0
76 170 -361 0
-76 170 361 0
76 -170 361 0
-76 -170 -361 0
76 -455 0
170 -455 0
-76 -170 455 0
77 171 -362 0
-77 171 362 0
77 -171 362 0
-77 -171 -362 0
77 -456 0
171 -456 0
-77 -171 456 0
78 172 -363 0
-78 172 363 0
78 -172 363 0
-78 -172 -363 0
78 -457 0
172 -457 0
-78 -172 457 0
79 173 -364 0
-79 173 364 0
79 -173 364 0
-79 -173 -364 0
79 -458 0
173 -458 0
-79 -173 458 0
80 174 -365 0
-80 174 365 0
80 -174 365 0
-80 -174 -365 0
80 -459 0
174 -459 0
-80 -174 459 0
81 175 -366 0
-81 175 366 0
81 -175 366 0
-81 -175 -366 0
81 -460 0
175 -460 0
-81 -175 460 0
82 176 -367 0
-82 176 367 0
82 -176 367 0
-82 -176 -367 0
82 -461 0
176 -461 0
-82 -176 461 0
83 177 -368 0
-83 177 368 0
83 -177 368 0
-83 -177 -368 0
83 -462 0
177 -462 0
-83 -177 462 0
84 178 -369 0
-84 178 369 0
84 -178 369 0
-84 -178 -369 0
84 -463 0
178 -463 0
-84 -178 463 0
85 179 -370 0
-85 179 370 0
85 -179 370 0
-85 -179 -370 0
85 -464 0
179 -464 0
-85 -179 464 0
86 180 -371 0
-86 180 371 0
86 -180 371 0
-86 -180 -371 0
86 -465 0
180 -465 0
-86 -180 465 0
87 181 -372 0
-87 181 372 0
87 -181 372 0
-87 -181 -372 0
87 -466 0
181 -466 0
-87 -181 466 0
88 182 -373 0
-88 182 373 0
88 -182 373 0
-88 -182 -373 0
88 -467 0
182 -467 0
-88 -182 467 0
89 183 -374 0
-89 183 374 0
89 -183 374 0
-89 -183 -374 0
89 -468 0
183 -468 0
-89 -183 468 0
90 184 -375 0
-90 184 375 0
90 -184 375 0
-90 -184 -375 0
90 -469 0
184 -469 0
-90 -184 469 0
91 185 -376 0
-91 185 376 0
91 -185 376 0
-91 -185 -376 0
91 -470 0
185 -470 0
-91 -185 470 0
92 186 -377 0
-92 186 377 0
92 -186 377 0
-92 -186 -377 0
92 -471 0
186 -471 0
-92 -186 471 0
93 187 -378 0
-93 187 378 0
93 -187 378 0
-93 -187 -378 0
93 -472 0
187 -472 0
-93 -187 472 0
94 188 -379 0
-94 188 379 0
94 -188 379 0
-94 -188 -379 0
94 -473 0
188 -473 0
-94 -188 473 0
284 -568 0
286 -568 0
-284 -286 568 0
284 -569 0
286 -569 0
287 -569 0
-284 -286 -287 569 0
380 -570 0
287 -570 0
-380 -287 570 0
284 -571 0
286 -571 0
287 -571 0
288 -571 0
-284 -286 -287 -288 571 0
380 -572 0
287 -572 0
288 -572 0
-380 -287 -288 572 0
381 -573 0
288 -573 0
-381 -288 573 0
284 -574 0
286 -574 0
287 -574 0
288 -574 0
289 -574 0
-284 -286 -287 -288 -289 574 0
380 -575 0
287 -575 0
288 -575 0
289 -575 0
-380 -287 -288 -289 575 0
381 -576 0
288 -576 0
289 -576 0
-381 -288 -289 576 0
382 -577 0
289 -577 0
-382 -289 577 0
-380 474 0
-568 474 0
380 568 -474 0
-381 475 0
-569 475 0
-570 475 0
381 569 570 -475 0
-382 476 0
-571 476 0
-572 476 0
-573 476 0
382 571 572 573 -476 0
-383 477 0
-574 477 0
-575 477 0
-576 477 0
-577 477 0
383 574 575 576 577 -477 0
477 -578 0
290 -578 0
-477 -290 578 0
477 -579 0
290 -579 0
291 -579 0
-477 -290 -291 579 0
384 -580 0
291 -580 0
-384 -291 580 0
477 -581 0
290 -581 0
291 -581 0
292 -581 0
-477 -290 -291 -292 581 0
384 -582 0
291 -582 0
292 -582 0
-384 -291 -292 582 0
385 -583 0
292 -583 0
-385 -292 583 0
477 -584 0
290 -584 0
291 -584 0
292 -584 0
293 -584 0
-477 -290 -291 -292 -293 584 0
384 -585 0
291 -585 0
292 -585 0
293 -585 0
-384 -291 -292 -293 585 0
385 -586 0
292 -586 0
293 -586 0
-385 -292 -293 586 0
386 -587 0
293 -587 0
-386 -293 587 0
-384 478 0
-578 478 0
384 578 -478 0
-385 479 0
-579 479 0
-580 479 0
385 579 580 -479 0
-386 480 0
-581 480 0
-582 480 0
-583 480 0
386 581 582 583 -480 0
-387 481 0
-584 481 0
-585 481 0
-586 481 0
-587 481 0
387 584 585 586 587 -481 0
481 -588 0
294 -588 0
-481 -294 588 0
481 -589 0
294 -589 0
295 -589 0
-481 -294 -295 589 0
388 -590 0
295 -590 0
-388 -295 590 0
481 -591 0
294 -591 0
295 -591 0
296 -591 0
-481 -294 -295 -296 591 0
388 -592 0
295 -592 0
296 -592 0
-388 -295 -296 592 0
389 -593 0
296 -593 0
-389 -296 593 0
481 -594 0
294 -594 0
295 -594 0
296 -594 0
297 -594 0
-481 -294 -295 -296 -297 594 0
388 -595 0
295 -595 0
296 -595 0
297 -595 0
-388 -295 -296 -297 595 0
389 -596 0
296 -596 0
297 -596 0
-389 -296 -297 596 0
390 -597 0
297 -597 0
-390 -297 597 0
-388 482 0
-588 482 0
388 588 -482 0
-389 483 0
-589 483 0
-590 483 0
389 589 590 -483 0
-390 484 0
-591 484 0
-592 484 0
-593 484 0
390 591 592 593 -484 0
-391 485 0
-594 485 0
-595 485 0
-596 485 0
-597 485 0
391 594 595 596 597 -485 0
485 -598 0
298 -598 0
-485 -298 598 0
485 -599 0
298 -599 0
299 -599 0
-485 -298 -299 599 0
392 -600 0
299 -600 0
-392 -299 600 0
485 -601 0
298 -601 0
299 -601 0
300 -601 0
-485 -298 -299 -300 601 0
392 -602 0
299 -602 0
300 -602 0
-392 -299 -300 602 0
393 -603 0
300 -603 0
-393 -300 603 0
485 -604 0
298 -604 0
299 -604 0
300 -604 0
301 -604 0
-485 -298 -299 -300 -301 604 0
392 -605 0
299 -605 0
300 -605 0
301 -605 0
-392 -299 -300 -301 605 0
393 -606 0
300 -606 0
301 -606 0
-393 -300 -301 606 0
394 -607 0
301 -607 0
-394 -301 607 0
-392 486 0
-598 486 0
392 598 -486 0
-393 487 0
-599 487 0
-600 487 0
393 599 600 -487 0
-394 488 0
-601 488 0
-602 488 0
-603 488 0
394 601 602 603 -488 0
-395 489 0
-604 489 0
-605 489 0
-606 489 0
-607 489 0
395 604 605 606 607 -489 0
489 -608 0
302 -608 0
-489 -302 608 0
489 -609 0
302 -609 0
303 -609 0
-489 -302 -303 609 0
396 -610 0
303 -610 0
-396 -303 610 0
489 -611 0
302 -611 0
303 -611 0
304 -611 0
-489 -302 -303 -304 611 0
396 -612 0
303 -612 0
304 -612 0
-396 -303 -304 612 0
397 -613 0
304 -613 0
-397 -304 613 0
489 -614 0
302 -614 0
303 -614 0
304 -614 0
305 -614 0
-489 -302 -303 -304 -305 614 0
396 -615 0
303 -615 0
304 -615 0
305 -615 0
-396 -303 -304 -305 615 0
397 -616 0
304 -616 0
305 -616 0
-397 -304 -305 616 0
398 -617 0
305 -617 0
-398 -305 617 0
-396 490 0
-608 490 0
396 608 -490 0
-397 491 0
-609 491 0
-610 491 0
397 609 610 -491 0
-398 492 0
-611 492 0
-612 492 0
-613 492 0
398 611 612 613 -492 0
-399 493 0
-614 493 0
-615 493 0
-616 493 0
-617 493 0
399 614 615 616 617 -493 0
493 -618 0
306 -618 0
-493 -306 618 0
493 -619 0
306 -619 0
307 -619 0
-493 -306 -307 619 0
400 -620 0
307 -620 0
-400 -307 620 0
493 -621 0
306 -621 0
307 -621 0
308 -621 0
-493 -306 -307 -308 621 0
400 -622 0
307 -622 0
308 -622 0
-400 -307 -308 622 0
401 -623 0
308 -623 0
-401 -308 623 0
493 -624 0
306 -624 0
307 -624 0
308 -624 0
309 -624 0
-493 -306 -307 -308 -309 624 0
400 -625 0
307 -625 0
308 -625 0
309 -625 0
-400 -307 -308 -309 625 0
401 -626 0
308 -626 0
309 -626 0
-401 -308 -309 626 0
402 -627 0
309 -627 0
-402 -309 627 0
-400 494 0
-618 494 0
400 618 -494 0
-401 495 0
-619 495 0
-620 495 0
401 619 620 -495 0
-402 496 0
-621 496 0
-622 496 0
-623 496 0
402 621 622 623 -496 0
-403 497 0
-624 497 0
-625 497 0
-626 497 0
-627 497 0
403 624 625 626 627 -497 0
497 -628 0
310 -628 0
-497 -310 628 0
497 -629 0
310 -629 0
311 -629 0
-497 -310 -311 629 0
404 -630 0
311 -630 0
-404 -311 630 0
497 -631 0
310 -631 0
311 -631 0
312 -631 0
-497 -310 -311 -312 631 0
404 -632 0
311 -632 0
312 -632 0
-404 -311 -312 632 0
405 -633 0
312 -633 0
-405 -312 633 0
497 -634 0
310 -634 0
311 -634 0
312 -634 0
313 -634 0
-497 -310 -311 -312 -313 634 0
404 -635 0
311 -635 0
312 -635 0
313 -635 0
-404 -311 -312 -313 635 0
405 -636 0
312 -636 0
313 -636 0
-405 -312 -313 636 0
406 -637 0
313 -637 0
-406 -313 637 0
-404 498 0
-628 498 0
404 628 -498 0
-405 499 0
-629 499 0
-630 499 0
405 629 630 -499 0
-406 500 0
-631 500 0
-632 500 0
-633 500 0
406 631 632 633 -500 0
-407 501 0
-634 501 0
-635 501 0
-636 501 0
-637 501 0
407 634 635 636 637 -501 0
501 -638 0
314 -638 0
-501 -314 638 0
501 -639 0
314 -639 0
315 -639 0
-501 -314 -315 639 0
408 -640 0
315 -640 0
-408 -315 640 0
501 -641 0
314 -641 0
315 -641 0
316 -641 0
-501 -314 -315 -316 641 0
408 -642 0
315 -642 0
316 -642 0
-408 -315 -316 642 0
409 -643 0
316 -643 0
-409 -316 643 0
501 -644 0
314 -644 0
315 -644 0
316 -644 0
317 -644 0
-501 -314 -315 -316 -317 644 0
408 -645 0
315 -645 0
316 -645 0
317 -645 0
-408 -315 -316 -317 645 0
409 -646 0
316 -646 0
317 -646 0
-409 -316 -317 646 0
410 -647 0
317 -647 0
-410 -317 647 0
-408 502 0
-638 502 0
408 638 -502 0
-409 503 0
-639 503 0
-640 503 0
409 639 640 -503 0
-410 504 0
-641 504 0
-642 504 0
-643 504 0
410 641 642 643 -504 0
-411 505 0
-644 505 0
-645 505 0
-646 505 0
-647 505 0
411 644 645 646 647 -505 0
505 -648 0
318 -648 0
-505 -318 648 0
505 -649 0
318 -649 0
319 -649 0
-505 -318 -319 649 0
412 -650 0
319 -650 0
-412 -319 650 0
505 -651 0
318 -651 0
319 -651 0
320 -651 0
-505 -318 -319 -320 651 0
412 -652 0
319 -652 0
320 -652 0
-412 -319 -320 652 0
413 -653 0
320 -653 0
-413 -320 653 0
505 -654 0
318 -654 0
319 -654 0
320 -654 0
321 -654 0
-505 -318 -319 -320 -321 654 0
412 -655 0
319 -655 0
320 -655 0
321 -655 0
-412 -319 -320 -321 655 0
413 -656 0
320 -656 0
321 -656 0
-413 -320 -321 656 0
414 -657 0
321 -657 0
-414 -321 657 0
-412 506 0
-648 506 0
412 648 -506 0
-413 507 0
-649 507 0
-650 507 0
413 649 650 -507 0
-414 508 0
-651 508 0
-652 508 0
-653 508 0
414 651 652 653 -508 0
-415 509 0
-654 509 0
-655 509 0
-656 509 0
-657 509 0
415 654 655 656 657 -509 0
509 -658 0
322 -658 0
-509 -322 658 0
509 -659 0
322 -659 0
323 -659 0
-509 -322 -323 659 0
416 -660 0
323 -660 0
-416 -323 660 0
509 -661 0
322 -661 0
323 -661 0
324 -661 0
-509 -322 -323 -324 661 0
416 -662 0
323 -662 0
324 -662 0
-416 -323 -324 662 0
417 -663 0
324 -663 0
-417 -324 663 0
509 -664 0
322 -664 0
323 -664 0
324 -664 0
325 -664 0
-509 -322 -323 -324 -325 664 0
416 -665 0
323 -665 0
324 -665 0
325 -665 0
-416 -323 -324 -325 665 0
417 -666 0
324 -666 0
325 -666 0
-417 -324 -325 666 0
418 -667 0
325 -667 0
-418 -325 667 0
-416 510 0
-658 510 0
416 658 -510 0
-417 511 0
-659 511 0
-660 511 0
417 659 660 -511 0
-418 512 0
-661 512 0
-662 512 0
-663 512 0
418 661 662 663 -512 0
-419 513 0
-664 513 0
-665 513 0
-666 513 0
-667 513 0
419 664 665 666 667 -513 0
513 -668 0
326 -668 0
-513 -326 668 0
513 -669 0
326 -669 0
327 -669 0
-513 -326 -327 669 0
420 -670 0
327 -670 0
-420 -327 670 0
513 -671 0
326 -671 0
327 -671 0
328 -671 0
-513 -326 -327 -328 671 0
420 -672 0
327 -672 0
328 -672 0
-420 -327 -328 672 0
421 -673 0
328 -673 0
-421 -328 673 0
513 -674 0
326 -674 0
327 -674 0
328 -674 0
329 -674 0
-513 -326 -327 -328 -329 674 0
420 -675 0
327 -675 0
328 -675 0
329 -675 0
-420 -327 -328 -329 675 0
421 -676 0
328 -676 0
329 -676 0
-421 -328 -329 676 0
422 -677 0
329 -677 0
-422 -329 677 0
-420 514 0
-668 514 0
420 668 -514 0
-421 515 0
-669 515 0
-670 515 0
421 669 670 -515 0
-422 516 0
-671 516 0
-672 516 0
-673 516 0
422 671 672 673 -516 0
-423 517 0
-674 517 0
-675 517 0
-676 517 0
-677 517 0
423 674 675 676 677 -517 0
517 -678 0
330 -678 0
-517 -330 678 0
517 -679 0
330 -679 0
331 -679 0
-517 -330 -331 679 0
424 -680 0
331 -680 0
-424 -331 680 0
517 -681 0
330 -681 0
331 -681 0
332 -681 0
-517 -330 -331 -332 681 0
424 -682 0
331 -682 0
332 -682 0
-424 -331 -332 682 0
425 -683 0
332 -683 0
-425 -332 683 0
517 -684 0
330 -684 0
331 -684 0
332 -684 0
333 -684 0
-517 -330 -331 -332 -333 684 0
424 -685 0
331 -685 0
332 -685 0
333 -685 0
-424 -331 -332 -333 685 0
425 -686 0
332 -686 0
333 -686 0
-425 -332 -333 686 0
426 -687 0
333 -687 0
-426 -333 687 0
-424 518 0
-678 518 0
424 678 -518 0
-425 519 0
-679 519 0
-680 519 0
425 679 680 -519 0
-426 520 0
-681 520 0
-682 520 0
-683 520 0
426 681 682 683 -520 0
-427 521 0
-684 521 0
-685 521 0
-686 521 0
-687 521 0
427 684 685 686 687 -521 0
521 -688 0
334 -688 0
-521 -334 688 0
521 -689 0
334 -689 0
335 -689 0
-521 -334 -335 689 0
428 -690 0
335 -690 0
-428 -335 690 0
521 -691 0
334 -691 0
335 -691 0
336 -691 0
-521 -334 -335 -336 691 0
428 -692 0
335 -692 0
336 -692 0
-428 -335 -336 692 0
429 -693 0
336 -693 0
-429 -336 693 0
521 -694 0
334 -694 0
335 -694 0
336 -694 0
337 -694 0
-521 -334 -335 -336 -337 694 0
428 -695 0
335 -695 0
336 -695 0
337 -695 0
-428 -335 -336 -337 695 0
429 -696 0
336 -696 0
337 -696 0
-429 -336 -337 696 0
430 -697 0
337 -697 0
-430 -337 697 0
-428 522 0
-688 522 0
428 688 -522 0
-429 523 0
-689 523 0
-690 523 0
429 689 690 -523 0
-430 524 0
-691 524 0
-692 524 0
-693 524 0
430 691 692 693 -524 0
-431 525 0
-694 525 0
-695 525 0
-696 525 0
-697 525 0
431 694 695 696 697 -525 0
525 -698 0
338 -698 0
-525 -338 698 0
525 -699 0
338 -699 0
339 -699 0
-525 -338 -339 699 0
432 -700 0
339 -700 0
-432 -339 700 0
525 -701 0
338 -701 0
339 -701 0
340 -701 0
-525 -338 -339 -340 701 0
432 -702 0
339 -702 0
340 -702 0
-432 -339 -340 702 0
433 -703 0
340 -703 0
-433 -340 703 0
525 -704 0
338 -704 0
339 -704 0
340 -704 0
341 -704 0
-525 -338 -339 -340 -341 704 0
432 -705 0
339 -705 0
340 -705 0
341 -705 0
-432 -339 -340 -341 705 0
433 -706 0
340 -706 0
341 -706 0
-433 -340 -341 706 0
434 -707 0
341 -707 0
-434 -341 707 0
-432 526 0
-698 526 0
432 698 -526 0
-433 527 0
-699 527 0
-700 527 0
433 699 700 -527 0
-434 528 0
-701 528 0
-702 528 0
-703 528 0
434 701 702 703 -528 0
-435 529 0
-704 529 0
-705 529 0
-706 529 0
-707 529 0
435 704 705 706 707 -529 0
529 -708 0
342 -708 0
-529 -342 708 0
529 -709 0
342 -709 0
343 -709 0
-529 -342 -343 709 0
436 -710 0
343 -710 0
-436 -343 710 0
529 -711 0
342 -711 0
343 -711 0
344 -711 0
-529 -342 -343 -344 711 0
436 -712 0
343 -712 0
344 -712 0
-436 -343 -344 712 0
437 -713 0
344 -713 0
-437 -344 713 0
529 -714 0
342 -714 0
343 -714 0
344 -714 0
345 -714 0
-529 -342 -343 -344 -345 714 0
436 -715 0
343 -715 0
344 -715 0
345 -715 0
-436 -343 -344 -345 715 0
437 -716 0
344 -716 0
345 -716 0
-437 -344 -345 716 0
438 -717 0
345 -717 0
-438 -345 717 0
-436 530 0
-708 530 0
436 708 -530 0
-437 531 0
-709 531 0
-710 531 0
437 709 710 -531 0
-438 532 0
-711 532 0
-712 532 0
-713 532 0
438 711 712 713 -532 0
-439 533 0
-714 533 0
-715 533 0
-716 533 0
-717 533 0
439 714 715 716 717 -533 0
533 -718 0
346 -718 0
-533 -346 718 0
533 -719 0
346 -719 0
347 -719 0
-533 -346 -347 719 0
440 -720 0
347 -720 0
-440 -347 720 0
533 -721 0
346 -721 0
347 -721 0
348 -721 0
-533 -346 -347 -348 721 0
440 -722 0
347 -722 0
348 -722 0
-440 -347 -348 722 0
441 -723 0
348 -723 0
-441 -348 723 0
533 -724 0
346 -724 0
347 -724 0
348 -724 0
349 -724 0
-533 -346 -347 -348 -349 724 0
440 -725 0
347 -725 0
348 -725 0
349 -725 0
-440 -347 -348 -349 725 0
441 -726 0
348 -726 0
349 -726 0
-441 -348 -349 726 0
442 -727 0
349 -727 0
-442 -349 727 0
-440 534 0
-718 534 0
440 718 -534 0
-441 535 0
-719 535 0
-720 535 0
441 719 720 -535 0
-442 536 0
-721 536 0
-722 536 0
-723 536 0
442 721 722 723 -536 0
-443 537 0
-724 537 0
-725 537 0
-726 537 0
-727 537 0
443 724 725 726 727 -537 0
537 -728 0
350 -728 0
-537 -350 728 0
537 -729 0
350 -729 0
351 -729 0
-537 -350 -351 729 0
444 -730 0
351 -730 0
-444 -351 730 0
537 -731 0
350 -731 0
351 -731 0
352 -731 0
-537 -350 -351 -352 731 0
444 -732 0
351 -732 0
352 -732 0
-444 -351 -352 732 0
445 -733 0
352 -733 0
-445 -352 733 0
537 -734 0
350 -734 0
351 -734 0
352 -734 0
353 -734 0
-537 -350 -351 -352 -353 734 0
444 -735 0
351 -735 0
352 -735 0
353 -735 0
-444 -351 -352 -353 735 0
445 -736 0
352 -736 0
353 -736 0
-445 -352 -353 736 0
446 -737 0
353 -737 0
-446 -353 737 0
-444 538 0
-728 538 0
444 728 -538 0
-445 539 0
-729 539 0
-730 539 0
445 729 730 -539 0
-446 540 0
-731 540 0
-732 540 0
-733 540 0
446 731 732 733 -540 0
-447 541 0
-734 541 0
-735 541 0
-736 541 0
-737 541 0
447 734 735 736 737 -541 0
541 -738 0
354 -738 0
-541 -354 738 0
541 -739 0
354 -739 0
355 -739 0
-541 -354 -355 739 0
448 -740 0
355 -740 0
-448 -355 740 0
541 -741 0
354 -741 0
355 -741 0
356 -741 0
-541 -354 -355 -356 741 0
448 -742 0
355 -742 0
356 -742 0
-448 -355 -356 742 0
449 -743 0
356 -743 0
-449 -356 743 0
541 -744 0
354 -744 0
355 -744 0
356 -744 0
357 -744 0
-541 -354 -355 -356 -357 744 0
448 -745 0
355 -745 0
356 -745 0
357 -745 0
-448 -355 -356 -357 745 0
449 -746 0
356 -746 0
357 -746 0
-449 -356 -357 746 0
450 -747 0
357 -747 0
-450 -357 747 0
-448 542 0
-738 542 0
448 738 -542 0
-449 543 0
-739 543 0
-740 543 0
449 739 740 -543 0
-450 544 0
-741 544 0
-742 544 0
-743 544 0
450 741 742 743 -544 0
-451 545 0
-744 545 0
-745 545 0
-746 545 0
-747 545 0
451 744 745 746 747 -545 0
545 -748 0
358 -748 0
-545 -358 748 0
545 -749 0
358 -749 0
359 -749 0
-545 -358 -359 749 0
452 -750 0
359 -750 0
-452 -359 750 0
545 -751 0
358 -751 0
359 -751 0
360 -751 0
-545 -358 -359 -360 751 0
452 -752 0
359 -752 0
360 -752 0
-452 -359 -360 752 0
453 -753 0
360 -753 0
-453 -360 753 0
545 -754 0
358 -754 0
359 -754 0
360 -754 0
361 -754 0
-545 -358 -359 -360 -361 754 0
452 -755 0
359 -755 0
360 -755 0
361 -755 0
-452 -359 -360 -361 755 0
453 -756 0
360 -756 0
361 -756 0
-453 -360 -361 756 0
454 -757 0
361 -757 0
-454 -361 757 0
-452 546 0
-748 546 0
452 748 -546 0
-453 547 0
-749 547 0
-750 547 0
453 749 750 -547 0
-454 548 0
-751 548 0
-752 548 0
-753 548 0
454 751 752 753 -548 0
-455 549 0
-754 549 0
-755 549 0
-756 549 0
-757 549 0
455 754 755 756 757 -549 0
549 -758 0
362 -758 0
-549 -362 758 0
549 -759 0
362 -759 0
363 -759 0
-549 -362 -363 759 0
456 -760 0
363 -760 0
-456 -363 760 0
549 -761 0
362 -761 0
363 -761 0
364 -761 0
-549 -362 -363 -364 761 0
456 -762 0
363 -762 0
364 -762 0
-456 -363 -364 762 0
457 -763 0
364 -763 0
-457 -364 763 0
549 -764 0
362 -764 0
363 -764 0
364 -764 0
365 -764 0
-549 -362 -363 -364 -365 764 0
456 -765 0
363 -765 0
364 -765 0
365 -765 0
-456 -363 -364 -365 765 0
457 -766 0
364 -766 0
365 -766 0
-457 -364 -365 766 0
458 -767 0
365 -767 0
-458 -365 767 0
-456 550 0
-758 550 0
456 758 -550 0
-457 551 0
-759 551 0
-760 551 0
457 759 760 -551 0
-458 552 0
-761 552 0
-762 552 0
-763 552 0
458 761 762 763 -552 0
-459 553 0
-764 553 0
-765 553 0
-766 553 0
-767 553 0
459 764 765 766 767 -553 0
553 -768 0
366 -768 0
-553 -366 768 0
553 -769 0
366 -769 0
367 -769 0
-553 -366 -367 769 0
460 -770 0
367 -770 0
-460 -367 770 0
553 -771 0
366 -771 0
367 -771 0
368 -771 0
-553 -366 -367 -368 771 0
460 -772 0
367 -772 0
368 -772 0
-460 -367 -368 772 0
461 -773 0
368 -773 0
-461 -368 773 0
553 -774 0
366 -774 0
367 -774 0
368 -774 0
369 -774 0
-553 -366 -367 -368 -369 774 0
460 -775 0
367 -775 0
368 -775 0
369 -775 0
-460 -367 -368 -369 775 0
461 -776 0
368 -776 0
369 -776 0
-461 -368 -369 776 0
462 -777 0
369 -777 0
-462 -369 777 0
-460 554 0
-768 554 0
460 768 -554 0
-461 555 0
-769 555 0
-770 555 0
461 769 770 -555 0
-462 556 0
-771 556 0
-772 556 0
-773 556 0
462 771 772 773 -556 0
-463 557 0
-774 557 0
-775 557 0
-776 557 0
-777 557 0
463 774 775 776 777 -557 0
557 -778 0
370 -778 0
-557 -370 778 0
557 -779 0
370 -779 0
371 -779 0
-557 -370 -371 779 0
464 -780 0
371 -780 0
-464 -371 780 0
557 -781 0
370 -781 0
371 -781 0
372 -781 0
-557 -370 -371 -372 781 0
464 -782 0
371 -782 0
372 -782 0
-464 -371 -372 782 0
465 -783 0
372 -783 0
-465 -372 783 0
557 -784 0
370 -784 0
371 -784 0
372 -784 0
373 -784 0
-557 -370 -371 -372 -373 784 0
464 -785 0
371 -785 0
372 -785 0
373 -785 0
-464 -371 -372 -373 785 0
465 -786 0
372 -786 0
373 -786 0
-465 -372 -373 786 0
466 -787 0
373 -787 0
-466 -373 787 0
-464 558 0
-778 558 0
464 778 -558 0
-465 559 0
-779 559 0
-780 559 0
465 779 780 -559 0
-466 560 0
-781 560 0
-782 560 0
-783 560 0
466 781 782 783 -560 0
-467 561 0
-784 561 0
-785 561 0
-786 561 0
-787 561 0
467 784 785 786 787 -561 0
561 -788 0
374 -788 0
-561 -374 788 0
561 -789 0
374 -789 0
375 -789 0
-561 -374 -375 789 0
468 -790 0
375 -790 0
-468 -375 790 0
561 -791 0
374 -791 0
375 -791 0
376 -791 0
-561 -374 -375 -376 791 0
468 -792 0
375 -792 0
376 -792 0
-468 -375 -376 792 0
469 -793 0
376 -793 0
-469 -376 793 0
561 -794 0
374 -794 0
375 -794 0
376 -794 0
377 -794 0
-561 -374 -375 -376 -377 794 0
468 -795 0
375 -795 0
376 -795 0
377 -795 0
-468 -375 -376 -377 795 0
469 -796 0
376 -796 0
377 -796 0
-469 -376 -377 796 0
470 -797 0
377 -797 0
-470 -377 797 0
-468 562 0
-788 562 0
468 788 -562 0
-469 563 0
-789 563 0
-790 563 0
469 789 790 -563 0
-470 564 0
-791 564 0
-792 564 0
-793 564 0
470 791 792 793 -564 0
-471 565 0
-794 565 0
-795 565 0
-796 565 0
-797 565 0
471 794 795 796 797 -565 0
565 -798 0
378 -798 0
-565 -378 798 0
565 -799 0
378 -799 0
379 -799 0
-565 -378 -379 799 0
472 -800 0
379 -800 0
-472 -379 800 0
-472 566 0
-798 566 0
472 798 -566 0
-473 567 0
-799 567 0
-800 567 0
473 799 800 -567 0
286 284 -189 0
-286 284 189 0
286 -284 189 0
-286 -284 -189 0
287 474 -190 0
-287 474 190 0
287 -474 190 0
-287 -474 -190 0
288 475 -191 0
-288 475 191 0
288 -475 191 0
-288 -475 -191 0
289 476 -192 0
-289 476 192 0
289 -476 192 0
-289 -476 -192 0
290 477 -193 0
-290 477 193 0
290 -477 193 0
-290 -477 -193 0
291 478 -194 0
-291 478 194 0
291 -478 194 0
-291 -478 -194 0
292 479 -195 0
-292 479 195 0
292 -479 195 0
-292 -479 -195 0
293 480 -196 0
-293 480 196 0
293 -480 196 0
-293 -480 -196 0
294 481 -197 0
-294 481 197 0
294 -481 197 0
-294 -481 -197 0
295 482 -198 0
-295 482 198 0
295 -482 198 0
-295 -482 -198 0
296 483 -199 0
-296 483 199 0
296 -483 199 0
-296 -483 -199 0
297 484 -200 0
-297 484 200 0
297 -484 200 0
-297 -484 -200 0
298 485 -201 0
-298 485 201 0
298 -485 201 0
-298 -485 -201 0
299 486 -202 0
-299 486 202 0
299 -486 202 0
-299 -486 -202 0
300 487 -203 0
-300 487 203 0
300 -487 203 0
-300 -487 -203 0
301 488 -204 0
-301 488 204 0
301 -488 204 0
-301 -488 -204 0
302 489 -205 0
-302 489 205 0
302 -489 205 0
-302 -489 -205 0
303 490 -206 0
-303 490 206 0
303 -490 206 0
-303 -490 -206 0
304 491 -207 0
-304 491 207 0
304 -491 207 0
-304 -491 -207 0
305 492 -208 0
-305 492 208 0
305 -492 208 0
-305 -492 -208 0
306 493 -209 0
-306 493 209 0
306 -493 209 0
-306 -493 -209 0
307 494 -210 0
-307 494 210 0
307 -494 210 0
-307 -494 -210 0
308 495 -211 0
-308 495 211 0
308 -495 211 0
-308 -495 -211 0
309 496 -212 0
-309 496 212 0
309 -496 212 0
-309 -496 -212 0
310 497 -213 0
-310 497 213 0
310 -497 213 0
-310 -497 -213 0
311 498 -214 0
-311 498 214 0
311 -498 214 0
-311 -498 -214 0
312 499 -215 0
-312 499 215 0
312 -499 215 0
-312 -499 -215 0
313 500 -216 0
-313 500 216 0
313 -500 216 0
-313 -500 -216 0
314 501 -217 0
-314 501 217 0
314 -501 217 0
-314 -501 -217 0
315 502 -218 0
-315 502 218 0
315 -502 218 0
-315 -502 -218 0
316 503 -219 0
-316 503 219 0
316 -503 219 0
-316 -503 -219 0
317 504 -220 0
-317 504 220 0
317 -504 220 0
-317 -504 -220 0
318 505 -221 0
-318 505 221 0
318 -505 221 0
-318 -505 -221 0
319 506 -222 0
-319 506 222 0
319 -506 222 0
-319 -506 -222 0
320 507 -223 0
-320 507 223 0
320 -507 223 0
-320 -507 -223 0
321 508 -224 0
-321 508 224 0
321 -508 224 0
-321 -508 -224 0
322 509 -225 0
-322 509 225 0
322 -509 225 0
-322 -509 -225 0
323 510 -226 0
-323 510 226 0
323 -510 226 0
-323 -510 -226 0
324 511 -227 0
-324 511 227 0
324 -511 227 0
-324 -511 -227 0
325 512 -228 0
-325 512 228 0
325 -512 228 0
-325 -512 -228 0
326 513 -229 0
-326 513 229 0
326 -513 229 0
-326 -513 -229 0
327 514 -230 0
-327 514 230 0
327 -514 230 0
-327 -514 -230 0
328 515 -231 0
-328 515 231 0
328 -515 231 0
-328 -515 -231 0
329 516 -232 0
-329 516 232 0
329 -516 232 0
-329 -516 -232 0
330 517 -233 0
-330 517 233 0
330 -517 233 0
-330 -517 -233 0
331 518 -234 0
-331 518 234 0
331 -518 234 0
-331 -518 -234 0
332 519 -235 0
-332 519 235 0
332 -519 235 0
-332 -519 -235 0
333 520 -236 0
-333 520 236 0
333 -520 236 0
-333 -520 -236 0
334 521 -237 0
-334 521 237 0
334 -521 237 0
-334 -521 -237 0
335 522 -238 0
-335 522 238 0
335 -522 238 0
-335 -522 -238 0
336 523 -239 0
-336 523 239 0
336 -523 239 0
-336 -523 -239 0
337 524 -240 0
-337 524 240 0
337 -524 240 0
-337 -524 -240 0
338 525 -241 0
-338 525 241 0
338 -525 241 0
-338 -525 -241 0
339 526 -242 0
-339 526 242 0
339 -526 242 0
-339 -526 -242 0
340 527 -243 0
-340 527 243 0
340 -527 243 0
-340 -527 -243 0
341 528 -244 0
-341 528 244 0
341 -528 244 0
-341 -528 -244 0
342 529 -245 0
-342 529 245 0
342 -529 245 0
-342 -529 -245 0
343 530 -246 0
-343 530 246 0
343 -530 246 0
-343 -530 -246 0
344 531 -247 0
-344 531 247 0
344 -531 247 0
-344 -531 -247 0
345 532 -248 0
-345 532 248 0
345 -532 248 0
-345 -532 -248 0
346 533 -249 0
-346 533 249 0
346 -533 249 0
-346 -533 -249 0
347 534 -250 0
-347 534 250 0
347 -534 250 0
-347 -534 -250 0
348 535 -251 0
-348 535 251 0
348 -535 251 0
-348 -535 -251 0
349 536 -252 0
-349 536 252 0
349 -536 252 0
-349 -536 -252 0
350 537 -253 0
-350 537 253 0
350 -537 253 0
-350 -537 -253 0
351 538 -254 0
-351 538 254 0
351 -538 254 0
-351 -538 -254 0
352 539 -255 0
-352 539 255 0
352 -539 255 0
-352 -539 -255 0
353 540 -256 0
-353 540 256 0
353 -540 256 0
-353 -540 -256 0
354 541 -257 0
-354 541 257 0
354 -541 257 0
-354 -541 -257 0
355 542 -258 0
-355 542 258 0
355 -542 258 0
-355 -542 -258 0
356 543 -259 0
-356 543 259 0
356 -543 259 0
-356 -543 -259 0
357 544 -260 0
-357 544 260 0
357 -544 260 0
-357 -544 -260 0
358 545 -261 0
-358 545 261 0
358 -545 261 0
-358 -545 -261 0
359 546 -262 0
-359 546 262 0
359 -546 262 0
-359 -546 -262 0
360 547 -263 0
-360 547 263 0
360 -547 263 0
-360 -547 -263 0
361 548 -264 0
-361 548 264 0
361 -548 264 0
-361 -548 -264 0
362 549 -265 0
-362 549 265 0
362 -549 265 0
-362 -549 -265 0
363 550 -266 0
-363 550 266 0
363 -550 266 0
-363 -550 -266 0
364 551 -267 0
-364 551 267 0
364 -551 267 0
-364 -551 -267 0
365 552 -268 0
-365 552 268 0
365 -552 268 0
-365 -552 -268 0
366 553 -269 0
-366 553 269 0
366 -553 269 0
-366 -553 -269 0
367 554 -270 0
-367 554 270 0
367 -554 270 0
-367 -554 -270 0
368 555 -271 0
-368 555 271 0
368 -555 271 0
-368 -555 -271 0
369 556 -272 0
-369 556 272 0
369 -556 272 0
-369 -556 -272 0
370 557 -273 0
-370 557 273 0
370 -557 273 0
-370 -557 -273 0
371 558 -274 0
-371 558 274 0
371 -558 274 0
-371 -558 -274 0
372 559 -275 0
-372 559 275 0
372 -559 275 0
-372 -559 -275 0
373 560 -276 0
-373 560 276 0
373 -560 276 0
-373 -560 -276 0
374 561 -277 0
-374 561 277 0
374 -561 277 0
-374 -561 -277 0
375 562 -278 0
-375 562 278 0
375 -562 278 0
-375 -562 -278 0
376 563 -279 0
-376 563 279 0
376 -563 279 0
-376 -563 -279 0
377 564 -280 0
-377 564 280 0
377 -564 280 0
-377 -564 -280 0
378 565 -281 0
-378 565 281 0
378 -565 281 0
-378 -565 -281 0
379 566 -282 0
-379 566 282 0
379 -566 282 0
-379 -566 -282 0
567 -283 0
-567 283 0
